RT is False
Default write of storage_offers_DA.csv just to have a file (but constraint should be inactive)
Reading model...
...model read.
creating competitive generators file...
...competitive generators recorded.
Loading data...
.. day-ahead data with real-time VRE data read.
Compiling instance...
...instance created.
Creating Offer Mitigation (model will solve as dispatch if TRUE)...
NOTE: storage offers will not be mitigated
...storage offer mitigation file created
Converting model to MPEC...
...converted
NOTE: initial MIP solve with only storage competitive to get feasible solution
Solving...

Welcome to IBM(R) ILOG(R) CPLEX(R) Interactive Optimizer 12.9.0.0
  with Simplex, Mixed Integer & Barrier Optimizers
5725-A06 5725-A29 5724-Y48 5724-Y49 5724-Y54 5724-Y55 5655-Y21
Copyright IBM Corp. 1988, 2019.  All Rights Reserved.

Type 'help' for a list of available commands.
Type 'help' followed by a command name for more
information on commands.

CPLEX> Logfile 'cplex.log' closed.
Logfile 'C:\Users\llavin\Desktop\test826\logs\tmpb7w0bake.cplex.log' open.
CPLEX> New value for parallel optimization mode: -1
CPLEX> New value for emphasis for MIP optimization: 1
CPLEX> New value for mixed integer optimality gap tolerance: 0.01
CPLEX> New value for integrality tolerance: 1e-12
CPLEX> New value for deterministic time limit in ticks: 75000
CPLEX> Problem 'C:\Users\llavin\Desktop\test826\logs\tmp8w37lu74.pyomo.lp' read.
Read time = 0.23 sec. (13.92 ticks)
CPLEX> Problem name         : C:\Users\llavin\Desktop\test826\logs\tmp8w37lu74.pyomo.lp
Objective sense      : Maximize
Variables            :   53809  [Nneg: 1,  Box: 22004,  Free: 4464,
                                 Binary: 27340]
Objective nonzeros   :    8973
Linear constraints   :  123253  [Less: 41346,  Greater: 59096,  Equal: 22811]
  Nonzeros           :  293282
  RHS nonzeros       :   67484

Variables            : Min LB: -5000.000        Max UB: 1000000.       
Objective nonzeros   : Min   : 0.01666667       Max   : 753.1500       
Linear constraints   :
  Nonzeros           : Min   : 0.01666667       Max   : 1000000.       
  RHS nonzeros       : Min   : 0.01666667       Max   : 1000000.       
CPLEX> CPXPARAM_Parallel                                -1
CPXPARAM_Emphasis_MIP                            1
CPXPARAM_DetTimeLimit                            75000
CPXPARAM_MIP_Tolerances_MIPGap                   0.01
CPXPARAM_MIP_Tolerances_Integrality              9.9999999999999998e-13
Tried aggregator 4 times.
MIP Presolve eliminated 88737 rows and 18990 columns.
MIP Presolve added 3393 rows and 0 columns.
MIP Presolve modified 24896 coefficients.
Aggregator did 13029 substitutions.
Reduced MIP has 24880 rows, 21231 columns, and 70987 nonzeros.
Reduced MIP has 8389 binaries, 0 generals, 0 SOSs, and 0 indicators.
Presolve time = 0.33 sec. (193.92 ticks)
Probing fixed 422 vars, tightened 4127 bounds.
Probing time = 0.06 sec. (19.34 ticks)
Tried aggregator 2 times.
MIP Presolve eliminated 950 rows and 850 columns.
MIP Presolve modified 3028 coefficients.
Aggregator did 24 substitutions.
Reduced MIP has 23906 rows, 20357 columns, and 68155 nonzeros.
Reduced MIP has 7965 binaries, 0 generals, 0 SOSs, and 0 indicators.
Presolve time = 0.11 sec. (88.93 ticks)
Probing fixed 0 vars, tightened 269 bounds.
Probing time = 0.13 sec. (22.70 ticks)
Clique table members: 44851.
MIP emphasis: integer feasibility.
MIP search method: dynamic search.
Parallel mode: opportunistic, using up to 32 threads.
Root relaxation solution time = 0.39 sec. (609.71 ticks)

        Nodes                                         Cuts/
   Node  Left     Objective  IInf  Best Integer    Best Bound    ItCnt     Gap

      0     0     5920.1873   139                   5920.1873     5130         
*     0+    0                         4340.2835     5920.1873            36.40%
      0     0     5916.1261     4     4340.2835      Cuts: 21     5147   36.31%
      0     0     5916.1261     5     4340.2835   Flowcuts: 5     5149   36.31%
*     0+    0                         5756.2793     5916.1261             2.78%
      0     0     5916.1261     4     5756.2793   Flowcuts: 1     5151    2.78%
*     0+    0                         5813.6105     5916.1261             1.76%

Repeating presolve.
Tried aggregator 3 times.
MIP Presolve eliminated 11690 rows and 8783 columns.
MIP Presolve modified 19707 coefficients.
Aggregator did 239 substitutions.
Reduced MIP has 11977 rows, 11335 columns, and 36199 nonzeros.
Reduced MIP has 4114 binaries, 0 generals, 0 SOSs, and 0 indicators.
Presolve time = 0.11 sec. (63.10 ticks)
Probing fixed 672 vars, tightened 36254 bounds.
Probing time = 0.16 sec. (76.22 ticks)
Cover probing fixed 4 vars, tightened 2306 bounds.
Tried aggregator 4 times.
MIP Presolve eliminated 6433 rows and 6315 columns.
MIP Presolve modified 1996 coefficients.
Aggregator did 168 substitutions.
Reduced MIP has 5376 rows, 4852 columns, and 17991 nonzeros.
Reduced MIP has 1700 binaries, 0 generals, 0 SOSs, and 0 indicators.
Presolve time = 0.03 sec. (27.83 ticks)
Probing fixed 23 vars, tightened 2721 bounds.
Probing time = 0.03 sec. (18.53 ticks)
Cover probing fixed 7 vars, tightened 101 bounds.
Tried aggregator 3 times.
MIP Presolve eliminated 143 rows and 142 columns.
MIP Presolve modified 796 coefficients.
Aggregator did 9 substitutions.
Reduced MIP has 5224 rows, 4701 columns, and 17547 nonzeros.
Reduced MIP has 1641 binaries, 0 generals, 0 SOSs, and 0 indicators.
Presolve time = 0.02 sec. (11.66 ticks)
Probing fixed 0 vars, tightened 1669 bounds.
Probing time = 0.03 sec. (10.41 ticks)
Tried aggregator 2 times.
MIP Presolve eliminated 14 rows and 14 columns.
MIP Presolve modified 799 coefficients.
Aggregator did 1 substitutions.
Reduced MIP has 5209 rows, 4686 columns, and 17486 nonzeros.
Reduced MIP has 1638 binaries, 0 generals, 0 SOSs, and 0 indicators.
Presolve time = 0.01 sec. (13.51 ticks)
Represolve time = 0.53 sec. (267.91 ticks)
Probing fixed 4 vars, tightened 1409 bounds.
Probing time = 0.03 sec. (5.75 ticks)
Clique table members: 2527.
MIP emphasis: integer feasibility.
MIP search method: dynamic search.
Parallel mode: opportunistic, using up to 32 threads.
Root relaxation solution time = 0.08 sec. (79.67 ticks)

        Nodes                                         Cuts/
   Node  Left     Objective  IInf  Best Integer    Best Bound    ItCnt     Gap

*     0+    0                         5813.6105     5916.1261             1.76%
      0     0     5915.6318    13     5813.6105     5915.6318     6728    1.75%

Clique cuts applied:  2
Implied bound cuts applied:  11
Flow cuts applied:  18
Mixed integer rounding cuts applied:  16
Gomory fractional cuts applied:  13

Root node processing (before b&c):
  Real time             =    3.56 sec. (2394.30 ticks)
Parallel b&c, 32 threads:
  Real time             =    0.00 sec. (0.00 ticks)
  Sync time (average)   =    0.00 sec.
  Wait time (average)   =    0.00 sec.
                          ------------
Total (root+branch&cut) =    3.56 sec. (2394.30 ticks)

Solution pool: 3 solutions saved.

MIP - Integer optimal, tolerance (0.01/1e-06):  Objective =  5.8136104750e+03
Current MIP best bound =  5.8145864768e+03 (gap = 0.976002, 0.02%)
Solution time =    3.58 sec.  Iterations = 6763  Nodes = 0 (1)
Deterministic time = 2394.45 ticks  (669.21 ticks/sec)

CPLEX> Incumbent solution written to file 'C:\Users\llavin\Desktop\test826\logs\tmp7bmiwrnn.cplex.sol'.
CPLEX> NOTE: no warmstart specified for MIP iteration, default behavior is true
NOTE: resolving with all competitive generators using storage-only solution to warmstart
Solving...

Welcome to IBM(R) ILOG(R) CPLEX(R) Interactive Optimizer 12.9.0.0
  with Simplex, Mixed Integer & Barrier Optimizers
5725-A06 5725-A29 5724-Y48 5724-Y49 5724-Y54 5724-Y55 5655-Y21
Copyright IBM Corp. 1988, 2019.  All Rights Reserved.

Type 'help' for a list of available commands.
Type 'help' followed by a command name for more
information on commands.

CPLEX> Logfile 'cplex.log' closed.
Logfile 'C:\Users\llavin\Desktop\test826\logs\tmpg51rng0y.cplex.log' open.
CPLEX> New value for parallel optimization mode: -1
CPLEX> New value for emphasis for MIP optimization: 1
CPLEX> New value for mixed integer optimality gap tolerance: 0.01
CPLEX> New value for integrality tolerance: 1e-12
CPLEX> New value for deterministic time limit in ticks: 75000
CPLEX> Problem 'C:\Users\llavin\Desktop\test826\logs\tmpd5kc3911.pyomo.lp' read.
Read time = 0.22 sec. (13.94 ticks)
CPLEX> MIP start file 'C:\Users\llavin\Desktop\test826\logs\tmp_csrf12u.cplex.mst' read.
CPLEX> Problem name         : C:\Users\llavin\Desktop\test826\logs\tmpd5kc3911.pyomo.lp
Objective sense      : Maximize
Variables            :   54529  [Nneg: 1,  Box: 22724,  Free: 4464,
                                 Binary: 27340]
Objective nonzeros   :    9669
Linear constraints   :  123253  [Less: 41346,  Greater: 59096,  Equal: 22811]
  Nonzeros           :  293282
  RHS nonzeros       :   67484

Variables            : Min LB: -5000.000        Max UB: 1000000.       
Objective nonzeros   : Min   : 0.01666667       Max   : 753.1500       
Linear constraints   :
  Nonzeros           : Min   : 0.01666667       Max   : 1000000.       
  RHS nonzeros       : Min   : 0.01666667       Max   : 1000000.       
CPLEX> CPXPARAM_Parallel                                -1
CPXPARAM_Emphasis_MIP                            1
CPXPARAM_DetTimeLimit                            75000
CPXPARAM_MIP_Tolerances_MIPGap                   0.01
CPXPARAM_MIP_Tolerances_Integrality              9.9999999999999998e-13
Warning:  No solution found from 1 MIP starts.
Retaining values of one MIP start for possible repair.
Tried aggregator 4 times.
MIP Presolve eliminated 88737 rows and 19710 columns.
MIP Presolve added 3393 rows and 0 columns.
MIP Presolve modified 24896 coefficients.
Aggregator did 13029 substitutions.
Reduced MIP has 24880 rows, 21231 columns, and 70987 nonzeros.
Reduced MIP has 8389 binaries, 0 generals, 0 SOSs, and 0 indicators.
Presolve time = 0.31 sec. (194.34 ticks)
Probing fixed 422 vars, tightened 4127 bounds.
Probing time = 0.09 sec. (19.34 ticks)
Tried aggregator 2 times.
MIP Presolve eliminated 950 rows and 850 columns.
MIP Presolve modified 3028 coefficients.
Aggregator did 24 substitutions.
Reduced MIP has 23906 rows, 20357 columns, and 68155 nonzeros.
Reduced MIP has 7965 binaries, 0 generals, 0 SOSs, and 0 indicators.
Presolve time = 0.11 sec. (88.94 ticks)
Probing fixed 0 vars, tightened 269 bounds.
Probing time = 0.13 sec. (22.70 ticks)
Clique table members: 44851.
MIP emphasis: integer feasibility.
MIP search method: dynamic search.
Parallel mode: opportunistic, using up to 32 threads.
Root relaxation solution time = 0.45 sec. (686.24 ticks)

        Nodes                                         Cuts/
   Node  Left     Objective  IInf  Best Integer    Best Bound    ItCnt     Gap

      0     0   144975.4446   351                 144975.4446     5957         
      0     0   142198.0418   207                   Cuts: 246     6234         
      0     0   132031.2941   190                    Cuts: 66     6304         
      0     0   131931.0973   193                    Cuts: 20     6323         
Repair heuristic found nothing.
      0    28   125143.7887   166                     Cuts: 5     6582         
Elapsed time = 4.45 sec. (1964.84 ticks, tree = 0.04 MB, solutions = 0)
    624   316   116683.4847   146                 127409.6976     9371         
   1172   850   104740.2187   149                 127409.6976    15981         
   1751  1475    89489.5559   108                 127409.6976    24092         
   2269  2085    46294.6010    61                 127409.6976    37952         
   2917  2425    infeasible                       127409.6976    45805         
   3639  2559   -11629.2084    72                 127409.6976    48536         
   4320  2693    47518.3732   121                 127409.6976    52277         
   4954  3289    42639.8584    97                 127409.6976    70360         
   5524  3608    17625.8174   112                 127409.6976    78970         
   7789  5492    80752.4330   135                 127409.6976   124097         
Elapsed time = 21.83 sec. (5066.90 ticks, tree = 38.61 MB, solutions = 0)
  10223  7688    18801.3666   132                 127409.6976   192777         
  12794  8496  -210028.0557   116                 127409.6976   219705         
  15029 10185    67819.1894   122                 127409.6976   269931         
  17487 12353   -37529.7073    60                 127409.6976   323070         
  20190 14230    76728.0892   130                 127409.6976   367241         
  22736 15639      815.6527   105                 126586.2271   402510         
  25301 17132    42058.8159   149                 125765.9995   446448         
* 26561+ 9264                        42384.7227   125669.3931           196.50%
  29115 19028   -16327.8902   109    42384.7227   118199.6478   522633  178.87%
  29974 10243    93748.2067   113    42384.7227   108514.7398   611633  156.02%
Elapsed time = 76.23 sec. (16607.61 ticks, tree = 273.82 MB, solutions = 1)
  32237  1094    46785.0417    30    42384.7227   106901.0879   626057  152.22%
  35188  2087    47330.2723    57    42384.7227   105860.0492   642907  149.76%
  38662  5979        cutoff          42384.7227   105860.0492   691922  149.76%
  41884  7146    64046.6641    93    42384.7227   105860.0492   714393  149.76%
  45340  8263    45564.5903    76    42384.7227   105860.0492   736231  149.76%
  48815  8978    43046.9791    60    42384.7227   105860.0492   757072  149.76%
  52142 12015        cutoff          42384.7227   105860.0492   828115  149.76%
  55507 12356    43619.7053    47    42384.7227   105860.0492   834718  149.76%
  59024 14984    46523.9061    50    42384.7227   105860.0492   893135  149.76%
  62607 16067    48018.6806    26    42384.7227   105860.0492   911210  149.76%
Elapsed time = 130.70 sec. (26146.30 ticks, tree = 123.45 MB, solutions = 1)
  65869 16425    44466.9597    15    42384.7227   105860.0492   916182  149.76%
  67275 16310        cutoff          42384.7227   105540.5211   915609  149.01%
  67319 20286    42980.7813     5    42384.7227   105540.5211   948193  149.01%
  67797 22029    43058.3140     9    42384.7227   105540.5211   957335  149.01%
  70049 22176    42903.1683     8    42384.7227   105540.5211   958012  149.01%
  74074 22224    43045.6772     8    42384.7227   105540.5211   958173  149.01%
  79045 22917    43058.3140     8    42384.7227   105540.5211   961319  149.01%
  83681 23252    48989.4199    24    42384.7227   105540.5211   962181  149.01%
  87678 36431    45746.5385    15    42384.7227   105540.5211  1020378  149.01%
  91663 37108    47457.8987    14    42384.7227   105540.5211  1023365  149.01%
Elapsed time = 171.11 sec. (35704.22 ticks, tree = 302.73 MB, solutions = 1)
  95748 38855    43045.6772     5    42384.7227   105540.5211  1030444  149.01%
  99585 38653    44189.2338    20    42384.7227   102959.2239  1029782  142.92%
 103042 40157    43304.5640    17    42384.7227   102959.2239  1036786  142.92%
 107023 50071    43743.5857    16    42384.7227   102959.2239  1077940  142.92%
 111386 43026    42665.0724     6    42384.7227   102959.2239  1049277  142.92%
 116011 47654    43045.6772     8    42384.7227   102959.2239  1068373  142.92%
 120778 48117    42780.5831     6    42384.7227   102959.2239  1070458  142.92%
 125209 59544    42727.5643     7    42384.7227   102959.2239  1118388  142.92%
 129361 62940    46326.9790    20    42384.7227   102959.2239  1133411  142.92%
 133463 72125    47426.7187    25    42384.7227   102959.2239  1173413  142.92%
Elapsed time = 222.11 sec. (45242.96 ticks, tree = 584.96 MB, solutions = 1)
 137155 61554    46542.0489    24    42384.7227   102959.2239  1127008  142.92%
 140388 71293    42826.3682     6    42384.7227   102959.2239  1169410  142.92%
 142976 69352    42884.3814     6    42384.7227   102959.2239  1161202  142.92%
 144765 71321    42937.9794     5    42384.7227   102959.2239  1169552  142.92%
 145243 87743        cutoff          42384.7227    98254.9913  1246821  131.82%
 146553   566    45249.1107    80    42384.7227    78083.8411  1263165   84.23%
 148542   807        cutoff          42384.7227    69500.1060  1285110   63.97%
 150303   379        cutoff          42384.7227    66228.6091  1312824   56.26%
 152656   585    48748.0334    33    43607.3028    66228.6091  1316798   51.88%
 155568  2856    47777.6881    21    43720.4205    66228.6091  1332371   51.48%
Elapsed time = 252.75 sec. (57233.52 ticks, tree = 17.33 MB, solutions = 4)
 158913  3805    50490.6316    32    44751.8101    66228.6091  1336172   47.99%
 162345  5719    46121.8199    45    44751.8101    66228.6091  1344291   47.99%
 166167 12193    49132.8516    19    44751.8101    66228.6091  1363624   47.99%
 170182 11855    49132.8516    24    44751.8101    66228.6091  1362730   47.99%
 174075 15127    48804.9605    18    44751.8101    66228.6091  1370507   47.99%
 178136 20039    49132.8516    25    44751.8101    66228.6091  1381332   47.99%
 182073 22158    49132.8516    33    44751.8101    66228.6091  1386497   47.99%
 185930 24973    49009.1642    20    44751.8101    66228.6091  1393447   47.99%
 189796 28704    49274.2703    17    44751.8101    66228.6091  1403175   47.99%
 193504 33005    48742.2629    26    44751.8101    66228.6091  1414805   47.99%
Elapsed time = 298.45 sec. (66774.11 ticks, tree = 261.30 MB, solutions = 6)
 197444 34222    47124.7803    17    44751.8101    66228.6091  1417829   47.99%
 201652 36782    49009.1642    28    44751.8101    66228.6091  1423363   47.99%
 205689 49946    48111.0552    40    44751.8101    66228.6091  1453309   47.99%
 209710 44930    46698.3237    18    44751.8101    66228.6091  1441638   47.99%
 213616 47325    49848.0702    29    44751.8101    66228.6091  1446996   47.99%
 217436 51424    49132.8516    26    44751.8101    66228.6091  1456732   47.99%
 221048 58317    48445.5519    13    44751.8101    66228.6091  1473351   47.99%
 224002 57580    47062.0827    10    44751.8101    66228.6091  1471708   47.99%

Cover cuts applied:  26
Implied bound cuts applied:  13
Flow cuts applied:  175
Mixed integer rounding cuts applied:  10
Zero-half cuts applied:  2
Lift and project cuts applied:  30
Gomory fractional cuts applied:  15

Root node processing (before b&c):
  Real time             =    2.76 sec. (1919.79 ticks)
Parallel b&c, 32 threads:
  Real time             =  327.27 sec. (73098.44 ticks)
  Sync time (average)   =    3.09 sec.
  Wait time (average)   =    0.44 sec.
                          ------------
Total (root+branch&cut) =  330.03 sec. (75018.23 ticks)

Solution pool: 6 solutions saved.

MIP - Deterministic time limit exceeded, integer feasible:  Objective =  4.4751810108e+04
Current MIP best bound =  6.6228609124e+04 (gap = 21476.8, 47.99%)
Solution time =  330.06 sec.  Iterations = 1492010  Nodes = 225251 (66022)
Deterministic time = 75018.39 ticks  (227.29 ticks/sec)

CPLEX> Incumbent solution written to file 'C:\Users\llavin\Desktop\test826\logs\tmpct9fl2i4.cplex.sol'.
CPLEX> Exporting results... 
